\ENCODING=ISO-8859-1
\Problem name: IloCplex

Minimize
 obj: id1 + id5 + id2 + id3 + id4 + id18
Subject To
 id7:  id1 + id5 >= 48
 id9:  id2 >= 35
 id11: id3 >= 24
 id13: id1 + id4 >= 10
 id15: id5 >= 8
Bounds
      id18 = 0
End
